34
120
84	2
83	1
82	1
81	2
80	1
79	1
78	2
75	2
71	3
69	1
68	1
67	1
62	4
60	2
58	1
56	1
55	1
50	1
47	1
44	1
42	1
41	3
38	1
37	1
35	1
31	1
27	1
25	3
24	1
23	2
19	1
17	1
16	2
13	1
